
%FILE DATA:	Soccer Computational Problem for MiniZinc Models	%
%AUTHOR:	Jack Wall	%
%CONTACT:  	116397063@umail.ucc.ie			%
%LAST UPDATE:	02/27/2020, 19:27:34						%
%DESCRIPTION: 	66 games played with 44 games left				%


n=11; %number of teams

%Games to play
games=[|10,5|10,8|5,10|2,10|9,1|11,6|5,1|9,3|10,2|6,2|3,2|6,11|5,8|2,8|2,7|3,8|9,5|9,2|8,3|5,6|5,9|11,7|2,4|5,3|6,9|4,7|7,5|7,8|7,1|3,4|3,10|6,8|2,11|11,8|3,5|7,10|8,5|4,2|2,9|7,9|4,8|2,1|11,4|6,4|];

%Initial points
iPoints=[24,3,15,14,22,22,19,7,6,21,24];

%POSITION CONSTRAINTS
% [|teamID, operator, position|...]
% operators index:
%  1 for =  operator
%  2 for >  operator
%  3 for >= operator
%  4 for <  operator
%  5 for <= operator
positionConstraints=[|5,4,2|11,2,1|7,3,3|];